Name:		mgval_0.40_6C
Optimal value:	-1
#Vehicles:	10
Capacity:	50
Depot Node:	1
#Nodes:		31
#Edges:		23
#Arcs:		45
#Required N:	22
#Required E:	13
#Required A:	27

ReN.	DEMAND	S. COST
N2	7	7
N3	17	17
N4	1	1
N5	5	5
N7	27	27
N9	9	9
N10	20	20
N11	6	6
N12	3	3
N13	4	4
N15	12	12
N17	5	5
N18	6	6
N19	8	8
N21	4	4
N23	10	10
N24	5	5
N25	12	12
N26	6	6
N27	8	8
N29	14	14
N31	2	2

ReE.	FROM N.	TO N.	T. COST	DEMAND	S. COST
E11	8	9	7	12	12
E12	26	27	1	3	3
E13	13	19	6	14	14
E14	4	13	3	8	8
E15	8	12	8	14	14
E16	2	8	6	14	14
E17	23	25	3	7	7
E18	21	22	4	14	14
E19	20	22	5	11	11
E20	1	31	3	4	4
E21	28	31	3	4	4
E22	29	31	2	5	5
E23	6	31	3	9	9

EDGE	FROM N.	TO N.	T. COST
NrE1	19	21	3
NrE2	27	29	2
NrE3	9	13	6
NrE4	3	4	5
NrE5	15	16	3
NrE6	23	24	3
NrE7	3	9	2
NrE8	24	27	2
NrE9	1	7	10
NrE10	10	11	4

ReA.	FROM N.	TO N.	T. COST	DEMAND	S. COST
A19	7	6	3	9	9
A20	2	1	2	3	3
A21	16	17	2	4	4
A22	5	31	1	2	2
A23	14	15	5	3	3
A24	30	1	4	6	6
A25	19	22	2	9	9
A26	11	12	5	4	4
A27	1	2	2	2	2
A28	23	26	2	6	6
A29	19	20	4	12	12
A30	14	10	1	2	2
A31	3	2	1	7	7
A32	30	29	7	5	5
A33	9	4	9	2	2
A34	10	5	4	5	5
A35	5	6	3	4	4
A36	28	26	5	7	7
A37	6	11	2	6	6
A38	12	18	5	6	6
A39	1	30	4	6	6
A40	12	11	5	5	5
A41	17	11	4	10	10
A42	19	18	5	5	5
A43	18	19	5	4	4
A44	6	5	3	4	4
A45	18	21	3	3	3

ARC	FROM N.	TO N.	T. COST
NrA1	10	16	2
NrA2	13	12	4
NrA3	29	30	7
NrA4	29	28	3
NrA5	4	9	9
NrA6	18	12	5
NrA7	26	28	5
NrA8	7	8	3
NrA9	25	28	5
NrA10	5	10	4
NrA11	2	3	1
NrA12	15	14	5
NrA13	10	14	1
NrA14	17	16	2
NrA15	12	13	4
NrA16	21	18	3
NrA17	31	5	1
NrA18	11	6	2
